p cnf 612 1645
e 209 210 212 213 215 216 218 219 221 222 224 225 227 228 230 231 233 234 236 237 239 240 242 243 245 246 248 249 251 252 254 255 257 258 260 261 263 264 266 267 269 270 272 273 275 276 278 279 281 282 284 285 287 288 289 290 291 292 293 294 295 296 297 298 299 300 301 302 303 304 305 306 307 308 309 310 311 312 313 314 315 316 317 318 319 320 321 322 323 324 325 326 327 328 329 330 331 332 333 334 335 336 337 338 339 340 341 342 343 344 345 346 347 348 349 350 351 352 353 354 355 356 357 358 359 360 361 362 363 364 365 366 367 368 369 370 371 372 373 374 375 376 377 378 379 380 381 382 383 384 385 386 387 388 389 390 391 392 393 394 395 396 397 398 399 400 401 402 403 404 405 406 407 408 409 410 411 412 413 414 415 416 417 418 419 420 421 422 423 424 425 426 427 428 429 430 431 432 433 434 435 436 437 438 439 440 441 442 443 444 445 446 447 448 449 450 451 452 453 454 455 456 457 458 459 460 461 462 463 464 465 466 467 468 469 470 471 472 473 474 475 476 477 478 479 480 481 482 483 484 485 486 487 488 489 490 491 492 493 494 495 496 497 498 499 500 501 502 503 504 505 506 507 508 509 510 511 512 513 514 515 516 517 518 519 520 521 522 523 524 525 526 527 528 529 530 531 532 533 534 535 536 537 538 539 540 541 542 543 544 545 546 547 548 549 550 551 552 553 554 555 556 557 558 559 560 561 562 563 564 565 566 567 568 569 570 571 572 573 574 575 576 577 578 579 580 581 582 583 584 585 586 587 588 589 590 591 592 593 594 595 596 597 598 599 600 601 602 603 604 605 606 607 608 609 610 611 612 0
a 211 214 217 220 223 226 229 232 235 238 241 244 247 250 253 256 259 262 265 268 271 274 277 280 283 286 0
e 1 2 3 4 5 6 7 8 9 10 11 12 13 14 15 16 17 18 19 20 21 22 23 24 25 26 27 28 29 30 31 32 33 34 35 36 37 38 39 40 41 42 43 44 45 46 47 48 49 50 51 52 53 54 55 56 57 58 59 60 61 62 71 72 73 74 75 76 77 78 79 80 81 82 83 84 85 86 87 88 89 90 91 92 93 94 95 96 97 98 99 100 101 102 103 104 105 107 108 109 110 111 112 113 114 115 116 117 118 119 120 121 122 123 124 125 126 127 128 129 130 131 132 133 134 135 136 137 138 139 140 141 142 143 144 145 146 147 148 149 150 151 152 153 154 155 156 157 158 159 160 161 162 163 164 165 166 167 168 169 170 171 172 173 174 175 176 177 178 179 180 181 182 183 184 185 186 187 188 189 190 191 192 193 194 195 196 197 198 199 200 201 202 203 204 205 207 208 0
1 0
9 39 0
10 40 0
11 39 0
12 40 0
-9 -11 -39 0
-10 -12 -40 0
23 41 0
24 42 0
25 41 0
26 42 0
-23 -25 -41 0
-24 -26 -42 0
31 43 0
32 43 0
-31 -32 -43 0
23 -44 0
33 -44 0
44 -23 -33 0
21 -45 0
33 -45 0
45 -21 -33 0
19 -46 0
33 -46 0
46 -19 -33 0
18 -47 0
33 -47 0
47 -18 -33 0
9 -48 0
33 -48 0
48 -9 -33 0
7 -49 0
33 -49 0
49 -7 -33 0
5 -50 0
33 -50 0
50 -5 -33 0
4 -51 0
33 -51 0
51 -4 -33 0
11 52 0
12 53 0
39 52 0
40 53 0
-11 -39 -52 0
-12 -40 -53 0
9 54 0
10 55 0
39 54 0
40 55 0
-9 -39 -54 0
-10 -40 -55 0
56 -11 0
13 56 0
11 -13 -56 0
25 57 0
26 58 0
41 57 0
42 58 0
-25 -41 -57 0
-26 -42 -58 0
23 59 0
24 60 0
41 59 0
42 60 0
-23 -41 -59 0
-24 -42 -60 0
32 61 0
43 61 0
-32 -43 -61 0
31 62 0
43 62 0
-31 -43 -62 0
54 71 0
55 72 0
52 71 0
53 72 0
-54 -52 -71 0
-55 -53 -72 0
13 73 0
56 73 0
-13 -56 -73 0
74 -11 0
56 74 0
11 -56 -74 0
59 75 0
60 76 0
57 75 0
58 76 0
-59 -57 -75 0
-60 -58 -76 0
62 77 0
61 77 0
-62 -61 -77 0
35 78 0
29 78 0
-35 -29 -78 0
35 79 0
36 80 0
19 79 0
20 80 0
-35 -19 -79 0
-36 -20 -80 0
35 81 0
36 82 0
5 81 0
6 82 0
-35 -5 -81 0
-36 -6 -82 0
16 -83 0
37 -83 0
83 -16 -37 0
27 -84 0
37 -84 0
84 -27 -37 0
2 -85 0
3 -86 0
37 -85 0
38 -86 0
85 -2 -37 0
86 -3 -38 0
14 -87 0
15 -88 0
37 -87 0
38 -88 0
87 -14 -37 0
88 -15 -38 0
74 89 0
73 89 0
-74 -73 -89 0
29 90 0
78 90 0
-29 -78 -90 0
35 91 0
78 91 0
-35 -78 -91 0
19 92 0
20 93 0
79 92 0
80 93 0
-19 -79 -92 0
-20 -80 -93 0
35 94 0
36 95 0
79 94 0
80 95 0
-35 -79 -94 0
-36 -80 -95 0
5 96 0
6 97 0
81 96 0
82 97 0
-5 -81 -96 0
-6 -82 -97 0
35 98 0
36 99 0
81 98 0
82 99 0
-35 -81 -98 0
-36 -82 -99 0
89 -100 0
33 -100 0
100 -89 -33 0
91 101 0
90 101 0
-91 -90 -101 0
94 102 0
95 103 0
92 102 0
93 103 0
-94 -92 -102 0
-95 -93 -103 0
98 104 0
99 105 0
96 104 0
97 105 0
-98 -96 -104 0
-99 -97 -105 0
30 107 0
101 107 0
-30 -101 -107 0
21 108 0
22 109 0
102 108 0
103 109 0
-21 -102 -108 0
-22 -103 -109 0
7 110 0
8 111 0
104 110 0
105 111 0
-7 -104 -110 0
-8 -105 -111 0
101 112 0
107 112 0
-101 -107 -112 0
30 113 0
107 113 0
-30 -107 -113 0
102 114 0
103 115 0
108 114 0
109 115 0
-102 -108 -114 0
-103 -109 -115 0
21 116 0
22 117 0
108 116 0
109 117 0
-21 -108 -116 0
-22 -109 -117 0
104 118 0
105 119 0
110 118 0
111 119 0
-104 -110 -118 0
-105 -111 -119 0
7 120 0
8 121 0
110 120 0
111 121 0
-7 -110 -120 0
-8 -111 -121 0
113 122 0
112 122 0
-113 -112 -122 0
116 123 0
117 124 0
114 123 0
115 124 0
-116 -114 -123 0
-117 -115 -124 0
120 125 0
121 126 0
118 125 0
119 126 0
-120 -118 -125 0
-121 -119 -126 0
122 127 0
77 127 0
-122 -77 -127 0
123 128 0
124 129 0
75 128 0
76 129 0
-123 -75 -128 0
-124 -76 -129 0
125 130 0
126 131 0
71 130 0
72 131 0
-125 -71 -130 0
-126 -72 -131 0
77 132 0
127 132 0
-77 -127 -132 0
122 133 0
127 133 0
-122 -127 -133 0
75 134 0
76 135 0
128 134 0
129 135 0
-75 -128 -134 0
-76 -129 -135 0
123 136 0
124 137 0
128 136 0
129 137 0
-123 -128 -136 0
-124 -129 -137 0
71 138 0
72 139 0
130 138 0
131 139 0
-71 -130 -138 0
-72 -131 -139 0
125 140 0
126 141 0
130 140 0
131 141 0
-125 -130 -140 0
-126 -131 -141 0
133 142 0
132 142 0
-133 -132 -142 0
136 143 0
137 144 0
134 143 0
135 144 0
-136 -134 -143 0
-137 -135 -144 0
140 145 0
141 146 0
138 145 0
139 146 0
-140 -138 -145 0
-141 -139 -146 0
142 147 0
28 147 0
-142 -28 -147 0
142 -148 0
-37 -148 0
37 148 -142 0
143 149 0
144 150 0
16 149 0
17 150 0
-143 -16 -149 0
-144 -17 -150 0
143 -151 0
144 -152 0
-37 -151 0
-38 -152 0
37 151 -143 0
38 152 -144 0
145 153 0
146 154 0
2 153 0
3 154 0
-145 -2 -153 0
-146 -3 -154 0
145 -155 0
146 -156 0
-37 -155 0
-38 -156 0
37 155 -145 0
38 156 -146 0
28 157 0
147 157 0
-28 -147 -157 0
142 158 0
147 158 0
-142 -147 -158 0
16 159 0
17 160 0
149 159 0
150 160 0
-16 -149 -159 0
-17 -150 -160 0
143 161 0
144 162 0
149 161 0
150 162 0
-143 -149 -161 0
-144 -150 -162 0
2 163 0
3 164 0
153 163 0
154 164 0
-2 -153 -163 0
-3 -154 -164 0
145 165 0
146 166 0
153 165 0
154 166 0
-145 -153 -165 0
-146 -154 -166 0
158 167 0
157 167 0
-158 -157 -167 0
161 168 0
162 169 0
159 168 0
160 169 0
-161 -159 -168 0
-162 -160 -169 0
165 170 0
166 171 0
163 170 0
164 171 0
-165 -163 -170 0
-166 -164 -171 0
167 -172 0
37 -172 0
172 -167 -37 0
168 -173 0
169 -174 0
37 -173 0
38 -174 0
173 -168 -37 0
174 -169 -38 0
170 -175 0
171 -176 0
37 -175 0
38 -176 0
175 -170 -37 0
176 -171 -38 0
177 -148 0
177 -172 0
148 172 -177 0
178 -151 0
179 -152 0
178 -173 0
179 -174 0
151 173 -178 0
152 174 -179 0
180 -155 0
181 -156 0
180 -175 0
181 -176 0
155 175 -180 0
156 176 -181 0
177 -182 0
-37 -182 0
37 182 -177 0
178 -183 0
-37 -183 0
37 183 -178 0
178 -184 0
179 -185 0
-37 -184 0
-38 -185 0
37 184 -178 0
38 185 -179 0
180 -186 0
181 -187 0
-37 -186 0
-38 -187 0
37 186 -180 0
38 187 -181 0
188 -182 0
188 -84 0
182 84 -188 0
189 -183 0
189 -83 0
183 83 -189 0
190 -184 0
191 -185 0
190 -87 0
191 -88 0
184 87 -190 0
185 88 -191 0
192 -186 0
193 -187 0
192 -85 0
193 -86 0
186 85 -192 0
187 86 -193 0
188 -194 0
-35 -194 0
35 194 -188 0
189 -195 0
35 -195 0
195 -189 -35 0
190 -196 0
191 -197 0
-35 -196 0
-36 -197 0
35 196 -190 0
36 197 -191 0
192 -198 0
193 -199 0
35 -198 0
36 -199 0
198 -192 -35 0
199 -193 -36 0
200 -194 0
200 -195 0
194 195 -200 0
201 -196 0
202 -197 0
201 -198 0
202 -199 0
196 198 -201 0
197 199 -202 0
200 -203 0
33 -203 0
203 -200 -33 0
201 -204 0
202 -205 0
33 -204 0
34 -205 0
204 -201 -33 0
205 -202 -34 0
204 205 -207 0
-207 -204 -205 0
207 204 -205 0
207 205 -204 0
3 -51 0
51 -3 0
6 -204 0
204 -6 0
8 -50 0
50 -8 0
10 -49 0
49 -10 0
12 -48 0
48 -12 0
15 -100 0
100 -15 0
17 -47 0
47 -17 0
20 -203 0
203 -20 0
22 -46 0
46 -22 0
24 -45 0
45 -24 0
26 -44 0
44 -26 0
-35 -208 0
36 -208 0
79 -208 0
-80 -208 0
-92 -208 0
93 -208 0
102 -208 0
-103 -208 0
-108 -208 0
109 -208 0
116 -208 0
-117 -208 0
-123 -208 0
124 -208 0
128 -208 0
-129 -208 0
-134 -208 0
135 -208 0
143 -208 0
-144 -208 0
151 -208 0
-152 -208 0
178 -208 0
-179 -208 0
184 -208 0
-185 -208 0
190 -208 0
-191 -208 0
196 -208 0
-197 -208 0
201 -208 0
-202 -208 0
204 -208 0
-205 -208 0
35 80 92 103 108 117 123 129 134 144 152 179 185 191 197 202 205 208 -36 -79 -93 -102 -109 -116 -124 -128 -135 -143 -151 -178 -184 -190 -196 -201 -204 0
208 0
209 210 -33 0
209 33 -210 0
211 -209 -33 0
33 -209 -211 0
212 213 -34 0
212 34 -213 0
214 -212 -34 0
34 -212 -214 0
215 216 -35 0
215 35 -216 0
217 -215 -35 0
35 -215 -217 0
218 219 -36 0
218 36 -219 0
220 -218 -36 0
36 -218 -220 0
221 222 -37 0
221 37 -222 0
223 -221 -37 0
37 -221 -223 0
224 225 -38 0
224 38 -225 0
226 -224 -38 0
38 -224 -226 0
227 228 -2 0
227 2 -228 0
229 -227 -2 0
2 -227 -229 0
230 231 -4 0
230 4 -231 0
232 -230 -4 0
4 -230 -232 0
233 234 -5 0
233 5 -234 0
235 -233 -5 0
5 -233 -235 0
236 237 -7 0
236 7 -237 0
238 -236 -7 0
7 -236 -238 0
239 240 -9 0
239 9 -240 0
241 -239 -9 0
9 -239 -241 0
242 243 -11 0
242 11 -243 0
244 -242 -11 0
11 -242 -244 0
245 246 -13 0
245 13 -246 0
247 -245 -13 0
13 -245 -247 0
248 249 -14 0
248 14 -249 0
250 -248 -14 0
14 -248 -250 0
251 252 -16 0
251 16 -252 0
253 -251 -16 0
16 -251 -253 0
254 255 -18 0
254 18 -255 0
256 -254 -18 0
18 -254 -256 0
257 258 -19 0
257 19 -258 0
259 -257 -19 0
19 -257 -259 0
260 261 -21 0
260 21 -261 0
262 -260 -21 0
21 -260 -262 0
263 264 -23 0
263 23 -264 0
265 -263 -23 0
23 -263 -265 0
266 267 -25 0
266 25 -267 0
268 -266 -25 0
25 -266 -268 0
269 270 -27 0
269 27 -270 0
271 -269 -27 0
27 -269 -271 0
272 273 -28 0
272 28 -273 0
274 -272 -28 0
28 -272 -274 0
275 276 -29 0
275 29 -276 0
277 -275 -29 0
29 -275 -277 0
278 279 -30 0
278 30 -279 0
280 -278 -30 0
30 -278 -280 0
281 282 -31 0
281 31 -282 0
283 -281 -31 0
31 -281 -283 0
284 285 -32 0
284 32 -285 0
286 -284 -32 0
32 -284 -286 0
287 -212 0
287 -215 0
212 215 -287 0
212 -288 0
215 -288 0
288 -212 -215 0
289 -209 0
289 -287 0
209 287 -289 0
209 -290 0
287 -290 0
290 -209 -287 0
291 -290 0
291 -288 0
290 288 -291 0
290 -292 0
288 -292 0
292 -290 -288 0
293 -221 0
293 -224 0
221 224 -293 0
221 -294 0
224 -294 0
294 -221 -224 0
295 -218 0
295 -294 0
218 294 -295 0
218 -296 0
294 -296 0
296 -218 -294 0
297 -295 0
297 -293 0
295 293 -297 0
295 -298 0
293 -298 0
298 -295 -293 0
299 -292 0
299 -298 0
292 298 -299 0
292 -300 0
298 -300 0
300 -292 -298 0
301 -291 0
301 -296 0
291 296 -301 0
291 -302 0
296 -302 0
302 -291 -296 0
303 -299 0
303 -289 0
299 289 -303 0
299 -304 0
289 -304 0
304 -299 -289 0
305 -301 0
305 -297 0
301 297 -305 0
301 -306 0
297 -306 0
306 -301 -297 0
307 -303 0
307 -305 0
303 305 -307 0
303 -308 0
305 -308 0
308 -303 -305 0
309 -304 0
309 -306 0
304 306 -309 0
304 -310 0
306 -310 0
310 -304 -306 0
311 -300 0
311 -302 0
300 302 -311 0
300 -312 0
302 -312 0
312 -300 -302 0
313 -230 0
313 -233 0
230 233 -313 0
230 -314 0
233 -314 0
314 -230 -233 0
315 -227 0
315 -314 0
227 314 -315 0
227 -316 0
314 -316 0
316 -227 -314 0
317 -315 0
317 -313 0
315 313 -317 0
315 -318 0
313 -318 0
318 -315 -313 0
319 -236 0
319 -239 0
236 239 -319 0
236 -320 0
239 -320 0
320 -236 -239 0
321 -242 0
321 -245 0
242 245 -321 0
242 -322 0
245 -322 0
322 -242 -245 0
323 -319 0
323 -322 0
319 322 -323 0
319 -324 0
322 -324 0
324 -319 -322 0
325 -320 0
325 -321 0
320 321 -325 0
320 -326 0
321 -326 0
326 -320 -321 0
327 -324 0
327 -326 0
324 326 -327 0
324 -328 0
326 -328 0
328 -324 -326 0
329 -323 0
329 -325 0
323 325 -329 0
323 -330 0
325 -330 0
330 -323 -325 0
331 -317 0
331 -327 0
317 327 -331 0
317 -332 0
327 -332 0
332 -317 -327 0
333 -318 0
333 -330 0
318 330 -333 0
318 -334 0
330 -334 0
334 -318 -330 0
335 -316 0
335 -329 0
316 329 -335 0
316 -336 0
329 -336 0
336 -316 -329 0
337 -332 0
337 -336 0
332 336 -337 0
332 -338 0
336 -338 0
338 -332 -336 0
339 -334 0
339 -328 0
334 328 -339 0
334 -340 0
328 -340 0
340 -334 -328 0
341 -338 0
341 -340 0
338 340 -341 0
338 -342 0
340 -342 0
342 -338 -340 0
343 -337 0
343 -339 0
337 339 -343 0
337 -344 0
339 -344 0
344 -337 -339 0
345 -331 0
345 -335 0
331 335 -345 0
331 -346 0
335 -346 0
346 -331 -335 0
347 -346 0
347 -333 0
346 333 -347 0
346 -348 0
333 -348 0
348 -346 -333 0
349 -307 0
349 -344 0
307 344 -349 0
307 -350 0
344 -350 0
350 -307 -344 0
351 -308 0
351 -343 0
308 343 -351 0
308 -352 0
343 -352 0
352 -308 -343 0
353 -309 0
353 -348 0
309 348 -353 0
309 -354 0
348 -354 0
354 -309 -348 0
355 -310 0
355 -347 0
310 347 -355 0
310 -356 0
347 -356 0
356 -310 -347 0
357 -311 0
357 -345 0
311 345 -357 0
311 -358 0
345 -358 0
358 -311 -345 0
359 -350 0
359 -358 0
350 358 -359 0
350 -360 0
358 -360 0
360 -350 -358 0
361 -352 0
361 -312 0
352 312 -361 0
352 -362 0
312 -362 0
362 -352 -312 0
363 -354 0
363 -342 0
354 342 -363 0
354 -364 0
342 -364 0
364 -354 -342 0
365 -356 0
365 -341 0
356 341 -365 0
356 -366 0
341 -366 0
366 -356 -341 0
367 -360 0
367 -364 0
360 364 -367 0
360 -368 0
364 -368 0
368 -360 -364 0
369 -362 0
369 -366 0
362 366 -369 0
362 -370 0
366 -370 0
370 -362 -366 0
371 -368 0
371 -370 0
368 370 -371 0
368 -372 0
370 -372 0
372 -368 -370 0
373 -367 0
373 -369 0
367 369 -373 0
367 -374 0
369 -374 0
374 -367 -369 0
375 -359 0
375 -363 0
359 363 -375 0
359 -376 0
363 -376 0
376 -359 -363 0
377 -361 0
377 -365 0
361 365 -377 0
361 -378 0
365 -378 0
378 -361 -365 0
379 -376 0
379 -378 0
376 378 -379 0
376 -380 0
378 -380 0
380 -376 -378 0
381 -375 0
381 -377 0
375 377 -381 0
375 -382 0
377 -382 0
382 -375 -377 0
383 -349 0
383 -357 0
349 357 -383 0
349 -384 0
357 -384 0
384 -349 -357 0
385 -384 0
385 -353 0
384 353 -385 0
384 -386 0
353 -386 0
386 -384 -353 0
387 -351 0
387 -355 0
351 355 -387 0
351 -388 0
355 -388 0
388 -351 -355 0
389 -386 0
389 -388 0
386 388 -389 0
386 -390 0
388 -390 0
390 -386 -388 0
391 -385 0
391 -387 0
385 387 -391 0
385 -392 0
387 -392 0
392 -385 -387 0
393 -251 0
393 -254 0
251 254 -393 0
251 -394 0
254 -394 0
394 -251 -254 0
395 -248 0
395 -394 0
248 394 -395 0
248 -396 0
394 -396 0
396 -248 -394 0
397 -395 0
397 -393 0
395 393 -397 0
395 -398 0
393 -398 0
398 -395 -393 0
399 -260 0
399 -263 0
260 263 -399 0
260 -400 0
263 -400 0
400 -260 -263 0
401 -257 0
401 -399 0
257 399 -401 0
257 -402 0
399 -402 0
402 -257 -399 0
403 -402 0
403 -400 0
402 400 -403 0
402 -404 0
400 -404 0
404 -402 -400 0
405 -397 0
405 -403 0
397 403 -405 0
397 -406 0
403 -406 0
406 -397 -403 0
407 -398 0
407 -401 0
398 401 -407 0
398 -408 0
401 -408 0
408 -398 -401 0
409 -406 0
409 -396 0
406 396 -409 0
406 -410 0
396 -410 0
410 -406 -396 0
411 -408 0
411 -404 0
408 404 -411 0
408 -412 0
404 -412 0
412 -408 -404 0
413 -410 0
413 -412 0
410 412 -413 0
410 -414 0
412 -414 0
414 -410 -412 0
415 -409 0
415 -411 0
409 411 -415 0
409 -416 0
411 -416 0
416 -409 -411 0
417 -405 0
417 -407 0
405 407 -417 0
405 -418 0
407 -418 0
418 -405 -407 0
419 -269 0
419 -272 0
269 272 -419 0
269 -420 0
272 -420 0
420 -269 -272 0
421 -266 0
421 -419 0
266 419 -421 0
266 -422 0
419 -422 0
422 -266 -419 0
423 -422 0
423 -420 0
422 420 -423 0
422 -424 0
420 -424 0
424 -422 -420 0
425 -275 0
425 -278 0
275 278 -425 0
275 -426 0
278 -426 0
426 -275 -278 0
427 -281 0
427 -284 0
281 284 -427 0
281 -428 0
284 -428 0
428 -281 -284 0
429 -426 0
429 -427 0
426 427 -429 0
426 -430 0
427 -430 0
430 -426 -427 0
431 -425 0
431 -428 0
425 428 -431 0
425 -432 0
428 -432 0
432 -425 -428 0
433 -429 0
433 -431 0
429 431 -433 0
429 -434 0
431 -434 0
434 -429 -431 0
435 -430 0
435 -432 0
430 432 -435 0
430 -436 0
432 -436 0
436 -430 -432 0
437 -424 0
437 -434 0
424 434 -437 0
424 -438 0
434 -438 0
438 -424 -434 0
439 -423 0
439 -435 0
423 435 -439 0
423 -440 0
435 -440 0
440 -423 -435 0
441 -421 0
441 -436 0
421 436 -441 0
421 -442 0
436 -442 0
442 -421 -436 0
443 -437 0
443 -441 0
437 441 -443 0
437 -444 0
441 -444 0
444 -437 -441 0
445 -439 0
445 -433 0
439 433 -445 0
439 -446 0
433 -446 0
446 -439 -433 0
447 -443 0
447 -445 0
443 445 -447 0
443 -448 0
445 -448 0
448 -443 -445 0
449 -444 0
449 -446 0
444 446 -449 0
444 -450 0
446 -450 0
450 -444 -446 0
451 -438 0
451 -442 0
438 442 -451 0
438 -452 0
442 -452 0
452 -438 -442 0
453 -451 0
453 -440 0
451 440 -453 0
451 -454 0
440 -454 0
454 -451 -440 0
455 -414 0
455 -449 0
414 449 -455 0
414 -456 0
449 -456 0
456 -414 -449 0
457 -413 0
457 -450 0
413 450 -457 0
413 -458 0
450 -458 0
458 -413 -450 0
459 -416 0
459 -453 0
416 453 -459 0
416 -460 0
453 -460 0
460 -416 -453 0
461 -415 0
461 -454 0
415 454 -461 0
415 -462 0
454 -462 0
462 -415 -454 0
463 -418 0
463 -452 0
418 452 -463 0
418 -464 0
452 -464 0
464 -418 -452 0
465 -455 0
465 -463 0
455 463 -465 0
455 -466 0
463 -466 0
466 -455 -463 0
467 -457 0
467 -417 0
457 417 -467 0
457 -468 0
417 -468 0
468 -457 -417 0
469 -459 0
469 -447 0
459 447 -469 0
459 -470 0
447 -470 0
470 -459 -447 0
471 -461 0
471 -448 0
461 448 -471 0
461 -472 0
448 -472 0
472 -461 -448 0
473 -465 0
473 -469 0
465 469 -473 0
465 -474 0
469 -474 0
474 -465 -469 0
475 -467 0
475 -471 0
467 471 -475 0
467 -476 0
471 -476 0
476 -467 -471 0
477 -473 0
477 -475 0
473 475 -477 0
473 -478 0
475 -478 0
478 -473 -475 0
479 -474 0
479 -476 0
474 476 -479 0
474 -480 0
476 -480 0
480 -474 -476 0
481 -466 0
481 -470 0
466 470 -481 0
466 -482 0
470 -482 0
482 -466 -470 0
483 -468 0
483 -472 0
468 472 -483 0
468 -484 0
472 -484 0
484 -468 -472 0
485 -481 0
485 -483 0
481 483 -485 0
481 -486 0
483 -486 0
486 -481 -483 0
487 -482 0
487 -484 0
482 484 -487 0
482 -488 0
484 -488 0
488 -482 -484 0
489 -456 0
489 -464 0
456 464 -489 0
456 -490 0
464 -490 0
490 -456 -464 0
491 -489 0
491 -460 0
489 460 -491 0
489 -492 0
460 -492 0
492 -489 -460 0
493 -458 0
493 -462 0
458 462 -493 0
458 -494 0
462 -494 0
494 -458 -462 0
495 -491 0
495 -493 0
491 493 -495 0
491 -496 0
493 -496 0
496 -491 -493 0
497 -492 0
497 -494 0
492 494 -497 0
492 -498 0
494 -498 0
498 -492 -494 0
499 -372 0
499 -480 0
372 480 -499 0
372 -500 0
480 -500 0
500 -372 -480 0
501 -371 0
501 -485 0
371 485 -501 0
371 -502 0
485 -502 0
502 -371 -485 0
503 -374 0
503 -486 0
374 486 -503 0
374 -504 0
486 -504 0
504 -374 -486 0
505 -373 0
505 -487 0
373 487 -505 0
373 -506 0
487 -506 0
506 -373 -487 0
507 -380 0
507 -488 0
380 488 -507 0
380 -508 0
488 -508 0
508 -380 -488 0
509 -379 0
509 -495 0
379 495 -509 0
379 -510 0
495 -510 0
510 -379 -495 0
511 -382 0
511 -496 0
382 496 -511 0
382 -512 0
496 -512 0
512 -382 -496 0
513 -381 0
513 -497 0
381 497 -513 0
381 -514 0
497 -514 0
514 -381 -497 0
515 -390 0
515 -498 0
390 498 -515 0
390 -516 0
498 -516 0
516 -390 -498 0
517 -389 0
517 -490 0
389 490 -517 0
389 -518 0
490 -518 0
518 -389 -490 0
519 -499 0
519 -515 0
499 515 -519 0
499 -520 0
515 -520 0
520 -499 -515 0
521 -501 0
521 -517 0
501 517 -521 0
501 -522 0
517 -522 0
522 -501 -517 0
523 -503 0
523 -392 0
503 392 -523 0
503 -524 0
392 -524 0
524 -503 -392 0
525 -505 0
525 -391 0
505 391 -525 0
505 -526 0
391 -526 0
526 -505 -391 0
527 -507 0
527 -383 0
507 383 -527 0
507 -528 0
383 -528 0
528 -507 -383 0
529 -509 0
529 -477 0
509 477 -529 0
509 -530 0
477 -530 0
530 -509 -477 0
531 -511 0
531 -478 0
511 478 -531 0
511 -532 0
478 -532 0
532 -511 -478 0
533 -513 0
533 -479 0
513 479 -533 0
513 -534 0
479 -534 0
534 -513 -479 0
535 -519 0
535 -527 0
519 527 -535 0
519 -536 0
527 -536 0
536 -519 -527 0
537 -521 0
537 -529 0
521 529 -537 0
521 -538 0
529 -538 0
538 -521 -529 0
539 -523 0
539 -531 0
523 531 -539 0
523 -540 0
531 -540 0
540 -523 -531 0
541 -525 0
541 -533 0
525 533 -541 0
525 -542 0
533 -542 0
542 -525 -533 0
543 -535 0
543 -539 0
535 539 -543 0
535 -544 0
539 -544 0
544 -535 -539 0
545 -537 0
545 -541 0
537 541 -545 0
537 -546 0
541 -546 0
546 -537 -541 0
547 -543 0
547 -545 0
543 545 -547 0
543 -548 0
545 -548 0
548 -543 -545 0
549 -544 0
549 -546 0
544 546 -549 0
544 -550 0
546 -550 0
550 -544 -546 0
551 -536 0
551 -540 0
536 540 -551 0
536 -552 0
540 -552 0
552 -536 -540 0
553 -538 0
553 -542 0
538 542 -553 0
538 -554 0
542 -554 0
554 -538 -542 0
555 -551 0
555 -553 0
551 553 -555 0
551 -556 0
553 -556 0
556 -551 -553 0
557 -552 0
557 -554 0
552 554 -557 0
552 -558 0
554 -558 0
558 -552 -554 0
559 -520 0
559 -528 0
520 528 -559 0
520 -560 0
528 -560 0
560 -520 -528 0
561 -522 0
561 -530 0
522 530 -561 0
522 -562 0
530 -562 0
562 -522 -530 0
563 -524 0
563 -532 0
524 532 -563 0
524 -564 0
532 -564 0
564 -524 -532 0
565 -526 0
565 -534 0
526 534 -565 0
526 -566 0
534 -566 0
566 -526 -534 0
567 -559 0
567 -563 0
559 563 -567 0
559 -568 0
563 -568 0
568 -559 -563 0
569 -561 0
569 -565 0
561 565 -569 0
561 -570 0
565 -570 0
570 -561 -565 0
571 -567 0
571 -569 0
567 569 -571 0
567 -572 0
569 -572 0
572 -567 -569 0
573 -568 0
573 -570 0
568 570 -573 0
568 -574 0
570 -574 0
574 -568 -570 0
575 -560 0
575 -564 0
560 564 -575 0
560 -576 0
564 -576 0
576 -560 -564 0
577 -562 0
577 -566 0
562 566 -577 0
562 -578 0
566 -578 0
578 -562 -566 0
579 -575 0
579 -577 0
575 577 -579 0
575 -580 0
577 -580 0
580 -575 -577 0
581 -576 0
581 -578 0
576 578 -581 0
576 -582 0
578 -582 0
582 -576 -578 0
583 -500 0
583 -516 0
500 516 -583 0
500 -584 0
516 -584 0
584 -500 -516 0
585 -502 0
585 -518 0
502 518 -585 0
502 -586 0
518 -586 0
586 -502 -518 0
587 -583 0
587 -508 0
583 508 -587 0
583 -588 0
508 -588 0
588 -583 -508 0
589 -585 0
589 -510 0
585 510 -589 0
585 -590 0
510 -590 0
590 -585 -510 0
591 -504 0
591 -512 0
504 512 -591 0
504 -592 0
512 -592 0
592 -504 -512 0
593 -506 0
593 -514 0
506 514 -593 0
506 -594 0
514 -594 0
594 -506 -514 0
595 -587 0
595 -591 0
587 591 -595 0
587 -596 0
591 -596 0
596 -587 -591 0
597 -589 0
597 -593 0
589 593 -597 0
589 -598 0
593 -598 0
598 -589 -593 0
599 -595 0
599 -597 0
595 597 -599 0
595 -600 0
597 -600 0
600 -595 -597 0
601 -596 0
601 -598 0
596 598 -601 0
596 -602 0
598 -602 0
602 -596 -598 0
603 -588 0
603 -592 0
588 592 -603 0
588 -604 0
592 -604 0
604 -588 -592 0
605 -590 0
605 -594 0
590 594 -605 0
590 -606 0
594 -606 0
606 -590 -594 0
607 -603 0
607 -605 0
603 605 -607 0
603 -608 0
605 -608 0
608 -603 -605 0
609 -604 0
609 -606 0
604 606 -609 0
604 -610 0
606 -610 0
610 -604 -606 0
611 -584 0
611 -586 0
584 586 -611 0
584 -612 0
586 -612 0
612 -584 -586 0
547 -548 0
548 -549 0
549 -550 0
550 -555 0
555 -556 0
556 -557 0
557 -558 0
558 -571 0
571 -572 0
572 -573 0
573 -574 0
574 -579 0
579 -580 0
580 -581 0
581 -582 0
582 -599 0
599 -600 0
600 -601 0
601 -602 0
602 -607 0
607 -608 0
608 -609 0
609 -610 0
610 -611 0
611 -612 0
556 0
